                                                                 CP/M 2.2 Z1013                                                  mit 1.6 Disk.-Laufwerk                                                                                                          Ramdisk ? (Y/N) : ÿ                                                                                                                                                                                                                                                                                                                                                                                                                                                                                                                                                                                                                                                                                                                                                                            